(set-info :source  loris-7.ddns.comp.nus.edu.sg/~project/hip/) 
;Variables declarations
(declare-fun rl_primed () Int)
(declare-fun l () Int)
(declare-fun lm () Int)
(declare-fun ln () Int)
(declare-fun h_3208 () Int)
(declare-fun h_3204 () Int)
(declare-fun res () Int)
(declare-fun v_node_42_2365_primed () Int)
(declare-fun Anon_3211 () Int)
(declare-fun v_3206 () Int)
(declare-fun p_3212 () Int)
(declare-fun q_3215 () Int)
(declare-fun rr_primed () Int)
(declare-fun ln_3187 () Int)
(declare-fun rlm () Int)
(declare-fun rl () Int)
(declare-fun flted_32_3188 () Int)
(declare-fun rrm () Int)
(declare-fun rr () Int)
(declare-fun n () Int)
(declare-fun m () Int)
(declare-fun l_primed () Int)
(declare-fun tmp_3207 () Int)
;Relations declarations
;Axioms assertions
;Antecedent
(assert (= v_3206 10))
(assert (= ln_3187 ln))
(assert (= flted_32_3188 (+ 1 ln)))
(assert (= rr_primed rr))
(assert (= rl_primed rl))
(assert (= l_primed l))
(assert (= m lm))
(assert (= n ln))
(assert (<= 0 lm))
(assert (<= 0 ln))
(assert (<= 0 m))
(assert (<= 0 n))
(assert (= h_3204 (+ 1 n)))
(assert (= h_3208 (+ 1 h_3204)))
(assert (= res v_node_42_2365_primed))
(assert (= Anon_3211 v_3206))
(assert (= p_3212 tmp_3207))
(assert (= q_3215 rr_primed))
(assert (or (and (and (< rl 1) (= rlm 0)) (= ln_3187 0)) (and (and (<= 1 ln_3187) (<= 1 rlm)) (> rl 0))))
(assert (or (and (and (< rr 1) (= rrm 0)) (= flted_32_3188 0)) (and (and (<= 1 flted_32_3188) (<= 1 rrm)) (> rr 0))))
(assert (or (and (and (< l_primed 1) (= m 0)) (= n 0)) (and (and (<= 1 n) (<= 1 m)) (> l_primed 0))))
(assert (= tmp_3207 1))
;Negation of Consequence
(assert (not false))
(check-sat)